(set-logic QF_UF)
(declare-fun A0 () Bool)
(declare-fun A1 () Bool)
(declare-fun A2 () Bool)
(declare-fun A3 () Bool)
(declare-fun A4 () Bool)
(declare-fun A5 () Bool)
(declare-fun A6 () Bool)
(declare-fun A8 () Bool)
(declare-fun A9 () Bool)
(declare-fun A10 () Bool)
(declare-fun A11 () Bool)
(declare-fun A13 () Bool)
(declare-fun A14 () Bool)
(declare-fun A15 () Bool)
(declare-fun A16 () Bool)
(declare-fun A17 () Bool)
(declare-fun A18 () Bool)
(declare-fun A20 () Bool)
(declare-fun A21 () Bool)
(declare-fun A22 () Bool)
(declare-fun A23 () Bool)
(declare-fun A24 () Bool)
(declare-fun A25 () Bool)
(declare-fun A26 () Bool)
(declare-fun A27 () Bool)
(declare-fun A28 () Bool)
(declare-fun A29 () Bool)
(assert (let ((.def_0 (not A4))) (let ((.def_1 (or A25 .def_0))) (let ((.def_2 (not .def_1))) (let ((.def_3 (not A3))) (let ((.def_4 (or A2 .def_3))) (let ((.def_5 (and .def_4 .def_2))) (let ((.def_6 (or A17 A1))) (let ((.def_7 (not .def_6))) (let ((.def_8 (and A5 A4))) (let ((.def_9 (or .def_8 .def_7))) (let ((.def_10 (not .def_9))) (let ((.def_11 (and .def_10 .def_5))) (let ((.def_12 (not A14))) (let ((.def_13 (or A26 .def_12))) (let ((.def_14 (not A13))) (let ((.def_15 (or .def_14 A18))) (let ((.def_16 (or .def_15 .def_13))) (let ((.def_17 (not A22))) (let ((.def_18 (or .def_17 A1))) (let ((.def_19 (not .def_18))) (let ((.def_20 (not A5))) (let ((.def_21 (not A1))) (let ((.def_22 (and .def_21 .def_20))) (let ((.def_23 (and .def_22 .def_19))) (let ((.def_24 (not .def_23))) (let ((.def_25 (and .def_24 .def_16))) (let ((.def_26 (= .def_25 .def_11))) (let ((.def_27 (not A21))) (let ((.def_28 (and .def_27 A17))) (let ((.def_29 (and A17 A6))) (let ((.def_30 (not .def_29))) (let ((.def_31 (or .def_30 .def_28))) (let ((.def_32 (not .def_31))) (let ((.def_33 (not A20))) (let ((.def_34 (not A6))) (let ((.def_35 (or .def_34 .def_33))) (let ((.def_36 (not A15))) (let ((.def_37 (not A28))) (let ((.def_38 (or .def_37 .def_36))) (let ((.def_39 (or .def_38 .def_35))) (let ((.def_40 (and .def_39 .def_32))) (let ((.def_41 (not .def_40))) (let ((.def_42 (and A10 A17))) (let ((.def_43 (not A2))) (let ((.def_44 (not A0))) (let ((.def_45 (or .def_44 .def_43))) (let ((.def_46 (or .def_45 .def_42))) (let ((.def_47 (not A29))) (let ((.def_48 (or A27 .def_47))) (let ((.def_49 (not A16))) (let ((.def_50 (= .def_49 A10))) (let ((.def_51 (not .def_50))) (let ((.def_52 (or .def_51 .def_48))) (let ((.def_53 (= .def_52 .def_46))) (let ((.def_54 (and .def_53 .def_41))) (let ((.def_55 (or .def_54 .def_26))) (let ((.def_56 (not .def_55))) (let ((.def_57 (or .def_20 A8))) (let ((.def_58 (and .def_21 A4))) (let ((.def_59 (and .def_58 .def_57))) (let ((.def_60 (not .def_59))) (let ((.def_61 (not A24))) (let ((.def_62 (or .def_61 .def_14))) (let ((.def_63 (and .def_43 A0))) (let ((.def_64 (= .def_63 .def_62))) (let ((.def_65 (not .def_64))) (let ((.def_66 (and .def_65 .def_60))) (let ((.def_67 (or A20 .def_3))) (let ((.def_68 (not .def_67))) (let ((.def_69 (not A17))) (let ((.def_70 (or A6 .def_69))) (let ((.def_71 (not .def_70))) (let ((.def_72 (or .def_71 .def_68))) (let ((.def_73 (not A23))) (let ((.def_74 (or .def_73 A26))) (let ((.def_75 (and .def_36 .def_73))) (let ((.def_76 (not .def_75))) (let ((.def_77 (or .def_76 .def_74))) (let ((.def_78 (or .def_77 .def_72))) (let ((.def_79 (and .def_78 .def_66))) (let ((.def_80 (and .def_69 A11))) (let ((.def_81 (not .def_80))) (let ((.def_82 (= .def_14 .def_3))) (let ((.def_83 (not .def_82))) (let ((.def_84 (or .def_83 .def_81))) (let ((.def_85 (not .def_84))) (let ((.def_86 (= .def_36 A25))) (let ((.def_87 (not .def_86))) (let ((.def_88 (and A17 A13))) (let ((.def_89 (and .def_88 .def_87))) (let ((.def_90 (not .def_89))) (let ((.def_91 (and .def_90 .def_85))) (let ((.def_92 (not .def_91))) (let ((.def_93 (and .def_37 A25))) (let ((.def_94 (or A14 A9))) (let ((.def_95 (not .def_94))) (let ((.def_96 (or .def_95 .def_93))) (let ((.def_97 (not .def_96))) (let ((.def_98 (not A26))) (let ((.def_99 (and A5 .def_98))) (let ((.def_100 (and A11 A28))) (let ((.def_101 (not .def_100))) (let ((.def_102 (and .def_101 .def_99))) (let ((.def_103 (or .def_102 .def_97))) (let ((.def_104 (or .def_103 .def_92))) (let ((.def_105 (not .def_104))) (let ((.def_106 (and .def_105 .def_79))) (let ((.def_107 (not .def_106))) (let ((.def_108 (or .def_107 .def_56))) (let ((.def_109 (not .def_108))) .def_109)))))))))))))))))))))))))))))))))))))))))))))))))))))))))))))))))))))))))))))))))))))))))))))))))))))))))))))))
(check-sat)
